4 
5  05 20 35 50 
6  05 19 34 49 
7  04 19 34 49 
8  04 19 34 49 
9  04 19 34 49 
10  04 19 34 49 
11  04 19 34 49 
12  04 19 34 49 
13  04 19 34 49 
14  04 19 34 49 
15  04 19 34 49 
16  04 19 34 49 
17  04 19 34 49 
18  04 19 35 49 
19  04 19 34 49 
20  04 19 34 49 
21  04 19 34 49 
22  05 20 41 
23 
0 
